100
128
25
9
22
14
9
38
26
17
6
36
24
21
60
56
45
15
13
6
2
19
38
21
45
61
14
18
48
10
14
21
39
4
10
19
40
12
61
39
11
3
1
5
11
11
9
20
10
34
9
46
61
43
9
51
52
49
9
44
28
43
54
8
48
60
19
63
11
59
23
6
30
22
32
35
26
58
39
43
1
50
49
19
28
25
47
38
3
64
42
36
41
26
3
41
3
60
4
28
45
58